# Solution for model r3_t9_m4_7 Batch Number: 1
# Finished Task: 8 / 9
# Makespan: 608.0, Total Distance: 359.0, Total Time: 0.4068
# R O S F Batch
0 0 5 0.0 0.0 -1
1 1 10 0.0 0.0 -1
2 2 4 0.0 0.0 -1
3 0 9 536.0 568.0 0
4 2 11 479.0 505.0 0
5 0 6 348.0 371.0 0
6 0 3 445.0 479.0 0
7 1 -1 539.0 578.0 0
8 -1 -1 -1.0 -1.0 0
9 0 -1 578.0 598.0 0
10 1 7 505.0 529.0 0
11 2 -1 579.0 608.0 0
